p cnf 12 26
12 -11 -2 0
-12 10 9 0
12 10 -8 0
-12 -10 5 0
-12 -9 7 0
12 -8 3 0
-12 8 -2 0
-12 6 2 0
-11 10 -6 0
11 -10 -6 0
11 10 6 0
11 9 -8 0
11 -8 -4 0
11 -8 4 0
-11 -7 2 0
10 -9 -6 0
10 7 3 0
-10 -7 -2 0
-10 -4 -3 0
9 -7 -4 0
-9 -7 -2 0
8 7 -3 0
-8 6 5 0
7 5 2 0
-7 -4 1 0
6 -3 -2 0
